
     Program PWSCF v.7.5 starts on  9Sep2026 at 21:47: 6 

     This program is part of the open-source Quantum ESPRESSO suite
     for quantum simulation of materials; please cite
         "P. Giannozzi et al., J. Phys.:Condens. Matter 21 395502 (2009);
         "P. Giannozzi et al., J. Phys.:Condens. Matter 29 465901 (2017);
         "P. Giannozzi et al., J. Chem. Phys. 152 154105 (2020);
          URL http://www.quantum-espresso.org", 
     in publications or presentations arising from this work. More details at
     http://www.quantum-espresso.org/quote

     Serial multi-threaded version, running on   32 processor cores
     0 MiB available memory on the printing compute node when the environment starts

     Reading input from runs/exp/t9new_r1/qe_smoke\li.in

     Current dimensions of program PWSCF are:
     Max number of different atomic species (ntypx) = 10
     Max number of k-points (npk) =  40000
     Max angular momentum in pseudopotentials (lmaxx) =  4
     Found identity + ( -0.5000 -0.5000 -0.5000) symmetry
     This is a supercell, fractional translations are disabled
     Message from routine setup:
     using ibrav=0 with symmetry is DISCOURAGED, use correct ibrav instead


     G-vector sticks info
     --------------------
     sticks:   dense  smooth     PW     G-vecs:    dense   smooth      PW
     Sum        1405     697    177                39223    13949    1743

     Using Slab Decomposition



     bravais-lattice index     =            0
     lattice parameter (alat)  =       6.6329  a.u.
     unit-cell volume          =     291.8219 (a.u.)^3
     number of atoms/cell      =            2
     number of atomic types    =            1
     number of electrons       =         6.00
     number of Kohn-Sham states=            7
     kinetic-energy cutoff     =      50.0000  Ry
     charge density cutoff     =     400.0000  Ry
     scf convergence threshold =      1.0E-07
     mixing beta               =       0.3000
     number of iterations used =            8  plain     mixing
     energy convergence thresh.=      1.0E-04
     force convergence thresh. =      1.0E-03
     press convergence thresh. =      5.0E-01
     Exchange-correlation=  SLA  PW   PBX  PBC
                           (   1   4   3   4   0   0   0)
     nstep                     =           60


     celldm(1)=   6.632939  celldm(2)=   0.000000  celldm(3)=   0.000000
     celldm(4)=   0.000000  celldm(5)=   0.000000  celldm(6)=   0.000000

     crystal axes: (cart. coord. in units of alat)
               a(1) = (   1.000000   0.000000   0.000000 )  
               a(2) = (   0.000000   1.000000   0.000000 )  
               a(3) = (   0.000000   0.000000   1.000000 )  

     reciprocal axes: (cart. coord. in units 2 pi/alat)
               b(1) = (  1.000000  0.000000  0.000000 )  
               b(2) = (  0.000000  1.000000  0.000000 )  
               b(3) = (  0.000000  0.000000  1.000000 )  


     PseudoPot. # 1 for Li read from file:
     D://anaconda//envs//py312//share//sssp//efficiency/li_pbe_v1.4.uspp.F.UPF
     MD5 check sum: e912e257baa3777c20ea3d68f190483c
     Pseudo is Ultrasoft, Zval =  3.0
     Generated by new atomic code, or converted to UPF format
     Using radial grid of  751 points,  5 beta functions with: 
                l(1) =   0
                l(2) =   0
                l(3) =   0
                l(4) =   1
                l(5) =   1
     Q(r) pseudized with 10 coefficients,  rinner =    1.150   1.150   1.150


     atomic species   valence    mass     pseudopotential
     Li                3.00     6.94100     Li( 1.00)

     48 Sym. Ops., with inversion, found



   Cartesian axes

     site n.     atom                  positions (alat units)
         1        Li     tau(   1) = (   0.0000000   0.0000000   0.0000000  )
         2        Li     tau(   2) = (   0.5000000   0.5000000   0.5000000  )

     number of k points=     1  Gaussian smearing, width (Ry)=  0.0200
                       cart. coord. in units 2pi/alat
        k(    1) = (   0.0000000   0.0000000   0.0000000), wk =   2.0000000

     Dense  grid:    39223 G-vectors     FFT dimensions: (  45,  45,  45)

     Smooth grid:    13949 G-vectors     FFT dimensions: (  30,  30,  30)

     Estimated max dynamical RAM per process >      59.73 MB

     Initial potential from superposition of free atoms

     starting charge       5.0985, renormalised to       6.0000
     Starting wfcs are   10 randomized atomic wfcs

     total cpu time spent up to now is        7.7 secs

     Self-consistent Calculation

     iteration #  1     ecut=    50.00 Ry     beta= 0.30
     Davidson diagonalization with overlap
     ethr =  1.00E-02,  avg # of iterations =  2.0

     total cpu time spent up to now is        8.9 secs

     total energy              =     -29.34784307 Ry
     estimated scf accuracy    <       0.31608803 Ry

     iteration #  2     ecut=    50.00 Ry     beta= 0.30
     Davidson diagonalization with overlap
     ethr =  5.27E-03,  avg # of iterations =  1.0

     total cpu time spent up to now is        9.9 secs

     total energy              =     -29.24513176 Ry
     estimated scf accuracy    <       0.13952143 Ry

     iteration #  3     ecut=    50.00 Ry     beta= 0.30
     Davidson diagonalization with overlap
     ethr =  2.33E-03,  avg # of iterations =  1.0

     total cpu time spent up to now is       10.9 secs

     total energy              =     -29.25513155 Ry
     estimated scf accuracy    <       0.00040299 Ry

     iteration #  4     ecut=    50.00 Ry     beta= 0.30
     Davidson diagonalization with overlap
     ethr =  6.72E-06,  avg # of iterations =  9.0

     total cpu time spent up to now is       13.0 secs

     total energy              =     -29.25674848 Ry
     estimated scf accuracy    <       0.00010149 Ry

     iteration #  5     ecut=    50.00 Ry     beta= 0.30
     Davidson diagonalization with overlap
     ethr =  1.69E-06,  avg # of iterations =  1.0

     total cpu time spent up to now is       14.7 secs

     total energy              =     -29.25675546 Ry
     estimated scf accuracy    <       0.00000335 Ry

     iteration #  6     ecut=    50.00 Ry     beta= 0.30
     Davidson diagonalization with overlap
     ethr =  5.58E-08,  avg # of iterations =  3.0

     total cpu time spent up to now is       16.6 secs

     total energy              =     -29.25675701 Ry
     estimated scf accuracy    <       0.00000045 Ry

     iteration #  7     ecut=    50.00 Ry     beta= 0.30
     Davidson diagonalization with overlap
     ethr =  7.57E-09,  avg # of iterations =  2.0

     total cpu time spent up to now is       17.7 secs

     total energy              =     -29.25675719 Ry
     estimated scf accuracy    <       0.00000044 Ry

     iteration #  8     ecut=    50.00 Ry     beta= 0.30
     Davidson diagonalization with overlap
     ethr =  7.25E-09,  avg # of iterations =  1.0

     total cpu time spent up to now is       18.8 secs

     total energy              =     -29.25675716 Ry
     estimated scf accuracy    <       0.00000036 Ry

     iteration #  9     ecut=    50.00 Ry     beta= 0.30
     Davidson diagonalization with overlap
     ethr =  5.96E-09,  avg # of iterations =  1.0

     total cpu time spent up to now is       19.8 secs

     End of self-consistent calculation

          k = 0.0000 0.0000 0.0000 (  1743 PWs)   bands (ev):

   -45.8344 -45.8087  -2.7559   6.0228   6.0228   6.0228   8.2261

     the Fermi energy is     3.5094 ev

!    total energy              =     -29.25675714 Ry
     estimated scf accuracy    <       0.00000010 Ry
     smearing contrib. (-TS)   =      -0.00000000 Ry
     internal energy E=F+TS    =     -29.25675714 Ry

     The total energy is F=E-TS. E is the sum of the following terms:
     one-electron contribution =     -20.05747206 Ry
     hartree contribution      =       7.43773855 Ry
     xc contribution           =      -6.76112924 Ry
     ewald contribution        =      -9.87589439 Ry

     convergence has been achieved in   9 iterations

     Forces acting on atoms (cartesian axes, Ry/au):

     atom    1 type  1   force =     0.00000000    0.00000000    0.00000000
     atom    2 type  1   force =     0.00000000    0.00000000    0.00000000

     Total force =     0.000000     Total SCF correction =     0.000000


     Computing stress (Cartesian axis) and pressure

          total   stress  (Ry/bohr**3)                   (kbar)     P=      -71.46
  -0.00048581   0.00000000   0.00000000          -71.46        0.00        0.00
   0.00000000  -0.00048581   0.00000000            0.00      -71.46        0.00
   0.00000000   0.00000000  -0.00048581            0.00        0.00      -71.46


     BFGS Geometry Optimization
     Energy error            =      5.3E-03 Ry
     Gradient error          =      0.0E+00 Ry/Bohr
     Cell gradient error     =      7.1E+01 kbar

     number of scf cycles    =   1
     number of bfgs steps    =   0

     enthalpy           new  =     -29.2567571409 Ry

     new trust radius        =       0.0414946865 bohr
     new conv_thr            =       0.0000001000 Ry

     new unit-cell volume =    281.31788 a.u.^3 (    41.68701 Ang^3 )
     density =      0.55297 g/cm^3

CELL_PARAMETERS (angstrom)
   3.467370461   0.000000000   0.000000000
   0.000000000   3.467370461   0.000000000
   0.000000000   0.000000000   3.467370461

ATOMIC_POSITIONS (crystal)
Li               0.0000000000        0.0000000000        0.0000000000
Li               0.5000000000        0.5000000000        0.5000000000



     Writing config-only to output data dir runs/exp/t9new_r1/qe_smoke//out/li.save/ :
     XML data file
     NEW-OLD atomic charge density approx. for the potential
     New effective cutoffs (rho, wfc):  409.19   49.65

     total cpu time spent up to now is       20.2 secs

     Self-consistent Calculation

     iteration #  1     ecut=    50.00 Ry     beta= 0.30
     Davidson diagonalization with overlap
     ethr =  1.00E-06,  avg # of iterations =  4.0

     Threshold (ethr) on eigenvalues was too large:
     Diagonalizing with lowered threshold

     Davidson diagonalization with overlap
     ethr =  2.16E-08,  avg # of iterations =  1.0

     total cpu time spent up to now is       23.3 secs

     total energy              =     -29.26181389 Ry
     estimated scf accuracy    <       0.00000127 Ry

     iteration #  2     ecut=    50.00 Ry     beta= 0.30
     Davidson diagonalization with overlap
     ethr =  2.12E-08,  avg # of iterations =  1.0

     total cpu time spent up to now is       24.5 secs

     total energy              =     -29.26181382 Ry
     estimated scf accuracy    <       0.00000057 Ry

     iteration #  3     ecut=    50.00 Ry     beta= 0.30
     Davidson diagonalization with overlap
     ethr =  9.51E-09,  avg # of iterations =  1.0

     total cpu time spent up to now is       25.4 secs

     End of self-consistent calculation

          k = 0.0000 0.0000 0.0000 (  1743 PWs)   bands (ev):

   -45.6511 -45.6217  -2.6955   6.2609   6.2609   6.2609   8.4932

     the Fermi energy is     3.7660 ev

!    total energy              =     -29.26181386 Ry
     estimated scf accuracy    <          3.3E-09 Ry
     smearing contrib. (-TS)   =      -0.00000000 Ry
     internal energy E=F+TS    =     -29.26181386 Ry

     The total energy is F=E-TS. E is the sum of the following terms:
     one-electron contribution =     -19.87854137 Ry
     hartree contribution      =       7.38689089 Ry
     xc contribution           =      -6.77284994 Ry
     ewald contribution        =      -9.99731344 Ry

     convergence has been achieved in   3 iterations

     Forces acting on atoms (cartesian axes, Ry/au):

     atom    1 type  1   force =     0.00000000    0.00000000    0.00000000
     atom    2 type  1   force =     0.00000000    0.00000000    0.00000000

     Total force =     0.000000     Total SCF correction =     0.000000


     Computing stress (Cartesian axis) and pressure

          total   stress  (Ry/bohr**3)                   (kbar)     P=      -69.40
  -0.00047175   0.00000000   0.00000000          -69.40        0.00        0.00
   0.00000000  -0.00047175   0.00000000            0.00      -69.40        0.00
   0.00000000   0.00000000  -0.00047175            0.00        0.00      -69.40

     Energy error            =      5.1E-03 Ry
     Gradient error          =      0.0E+00 Ry/Bohr
     Cell gradient error     =      6.9E+01 kbar

     number of scf cycles    =   2
     number of bfgs steps    =   1

     enthalpy           old  =     -29.2567571409 Ry
     enthalpy           new  =     -29.2618138601 Ry

     CASE: enthalpy          _new < enthalpy          _old


     WARNING: bfgs curvature condition failed, Theta= 0.844
     new trust radius        =       0.0618629051 bohr
     new conv_thr            =       0.0000000010 Ry

     new unit-cell volume =    266.03918 a.u.^3 (    39.42294 Ang^3 )
     density =      0.58473 g/cm^3

CELL_PARAMETERS (angstrom)
   3.403426153   0.000000000   0.000000000
   0.000000000   3.403426153   0.000000000
   0.000000000   0.000000000   3.403426153

ATOMIC_POSITIONS (crystal)
Li               0.0000000000        0.0000000000        0.0000000000
Li               0.5000000000        0.5000000000        0.5000000000



     Writing config-only to output data dir runs/exp/t9new_r1/qe_smoke//out/li.save/ :
     XML data file
     NEW-OLD atomic charge density approx. for the potential
     New effective cutoffs (rho, wfc):  424.71   51.54

     total cpu time spent up to now is       25.7 secs

     Self-consistent Calculation

     iteration #  1     ecut=    50.00 Ry     beta= 0.30
     Davidson diagonalization with overlap
     ethr =  1.00E-06,  avg # of iterations =  4.0

     Threshold (ethr) on eigenvalues was too large:
     Diagonalizing with lowered threshold

     Davidson diagonalization with overlap
     ethr =  5.92E-08,  avg # of iterations =  1.0

     total cpu time spent up to now is       28.2 secs

     total energy              =     -29.26875140 Ry
     estimated scf accuracy    <       0.00000352 Ry

     iteration #  2     ecut=    50.00 Ry     beta= 0.30
     Davidson diagonalization with overlap
     ethr =  5.87E-08,  avg # of iterations =  1.0

     total cpu time spent up to now is       29.1 secs

     total energy              =     -29.26875118 Ry
     estimated scf accuracy    <       0.00000160 Ry

     iteration #  3     ecut=    50.00 Ry     beta= 0.30
     Davidson diagonalization with overlap
     ethr =  2.66E-08,  avg # of iterations =  1.0

     total cpu time spent up to now is       29.9 secs

     total energy              =     -29.26875128 Ry
     estimated scf accuracy    <          8.2E-09 Ry

     iteration #  4     ecut=    50.00 Ry     beta= 0.30
     Davidson diagonalization with overlap
     ethr =  1.37E-10,  avg # of iterations =  4.0

     total cpu time spent up to now is       31.2 secs

     total energy              =     -29.26875132 Ry
     estimated scf accuracy    <          5.1E-09 Ry

     iteration #  5     ecut=    50.00 Ry     beta= 0.30
     Davidson diagonalization with overlap
     ethr =  8.54E-11,  avg # of iterations =  1.0

     total cpu time spent up to now is       32.1 secs

     total energy              =     -29.26875131 Ry
     estimated scf accuracy    <       0.00000002 Ry

     iteration #  6     ecut=    50.00 Ry     beta= 0.30
     Davidson diagonalization with overlap
     ethr =  8.54E-11,  avg # of iterations =  2.0

     total cpu time spent up to now is       33.1 secs

     End of self-consistent calculation

          k = 0.0000 0.0000 0.0000 (  1743 PWs)   bands (ev):

   -45.3734 -45.3369  -2.5952   6.6366   6.6366   6.6366   8.9139

     the Fermi energy is     4.1689 ev

!    total energy              =     -29.26875132 Ry
     estimated scf accuracy    <          1.3E-11 Ry
     smearing contrib. (-TS)   =      -0.00000000 Ry
     internal energy E=F+TS    =     -29.26875132 Ry

     The total energy is F=E-TS. E is the sum of the following terms:
     one-electron contribution =     -19.60144042 Ry
     hartree contribution      =       7.30909510 Ry
     xc contribution           =      -6.79126087 Ry
     ewald contribution        =     -10.18514513 Ry

     convergence has been achieved in   6 iterations

     Forces acting on atoms (cartesian axes, Ry/au):

     atom    1 type  1   force =     0.00000000    0.00000000    0.00000000
     atom    2 type  1   force =     0.00000000    0.00000000    0.00000000

     Total force =     0.000000     Total SCF correction =     0.000000


     Computing stress (Cartesian axis) and pressure

          total   stress  (Ry/bohr**3)                   (kbar)     P=      -63.86
  -0.00043414   0.00000000   0.00000000          -63.86        0.00        0.00
   0.00000000  -0.00043414   0.00000000            0.00      -63.86        0.00
   0.00000000   0.00000000  -0.00043414            0.00        0.00      -63.86

     Energy error            =      6.9E-03 Ry
     Gradient error          =      0.0E+00 Ry/Bohr
     Cell gradient error     =      6.4E+01 kbar

     number of scf cycles    =   3
     number of bfgs steps    =   2

     enthalpy           old  =     -29.2618138601 Ry
     enthalpy           new  =     -29.2687513189 Ry

     CASE: enthalpy          _new < enthalpy          _old

     new trust radius        =       0.0919347318 bohr
     new conv_thr            =       0.0000000010 Ry

     new unit-cell volume =    244.17431 a.u.^3 (    36.18290 Ang^3 )
     density =      0.63709 g/cm^3

CELL_PARAMETERS (angstrom)
   3.307509691   0.000000000   0.000000000
   0.000000000   3.307509691   0.000000000
   0.000000000   0.000000000   3.307509691

ATOMIC_POSITIONS (crystal)
Li               0.0000000000        0.0000000000        0.0000000000
Li               0.5000000000        0.5000000000        0.5000000000



     Writing config-only to output data dir runs/exp/t9new_r1/qe_smoke//out/li.save/ :
     XML data file
     NEW-OLD atomic charge density approx. for the potential
     New effective cutoffs (rho, wfc):  449.70   54.57

     total cpu time spent up to now is       33.4 secs

     Self-consistent Calculation

     iteration #  1     ecut=    50.00 Ry     beta= 0.30
     Davidson diagonalization with overlap
     ethr =  1.00E-06,  avg # of iterations =  4.0

     total cpu time spent up to now is       35.2 secs

     total energy              =     -29.27739740 Ry
     estimated scf accuracy    <       0.00001026 Ry

     iteration #  2     ecut=    50.00 Ry     beta= 0.30
     Davidson diagonalization with overlap
     ethr =  1.71E-07,  avg # of iterations =  1.0

     total cpu time spent up to now is       36.2 secs

     total energy              =     -29.27739693 Ry
     estimated scf accuracy    <       0.00000468 Ry

     iteration #  3     ecut=    50.00 Ry     beta= 0.30
     Davidson diagonalization with overlap
     ethr =  7.79E-08,  avg # of iterations =  1.0

     total cpu time spent up to now is       37.1 secs

     total energy              =     -29.27739718 Ry
     estimated scf accuracy    <       0.00000002 Ry

     iteration #  4     ecut=    50.00 Ry     beta= 0.30
     Davidson diagonalization with overlap
     ethr =  3.99E-10,  avg # of iterations =  4.0

     total cpu time spent up to now is       38.3 secs

     total energy              =     -29.27739723 Ry
     estimated scf accuracy    <       0.00000001 Ry

     iteration #  5     ecut=    50.00 Ry     beta= 0.30
     Davidson diagonalization with overlap
     ethr =  2.35E-10,  avg # of iterations =  1.0

     total cpu time spent up to now is       39.2 secs

     End of self-consistent calculation

          k = 0.0000 0.0000 0.0000 (  1743 PWs)   bands (ev):

   -44.9323 -44.8817  -2.4192   7.2454   7.2454   7.2454   9.5948

     the Fermi energy is     4.8198 ev

!    total energy              =     -29.27739724 Ry
     estimated scf accuracy    <          5.7E-10 Ry
     smearing contrib. (-TS)   =      -0.00000000 Ry
     internal energy E=F+TS    =     -29.27739724 Ry

     The total energy is F=E-TS. E is the sum of the following terms:
     one-electron contribution =     -19.16489359 Ry
     hartree contribution      =       7.18886876 Ry
     xc contribution           =      -6.82086213 Ry
     ewald contribution        =     -10.48051028 Ry

     convergence has been achieved in   5 iterations

     Forces acting on atoms (cartesian axes, Ry/au):

     atom    1 type  1   force =     0.00000000    0.00000000    0.00000000
     atom    2 type  1   force =     0.00000000    0.00000000    0.00000000

     Total force =     0.000000     Total SCF correction =     0.000000


     Computing stress (Cartesian axis) and pressure

          total   stress  (Ry/bohr**3)                   (kbar)     P=      -51.51
  -0.00035016   0.00000000   0.00000000          -51.51        0.00        0.00
   0.00000000  -0.00035016   0.00000000            0.00      -51.51        0.00
   0.00000000   0.00000000  -0.00035016            0.00        0.00      -51.51

     Energy error            =      8.6E-03 Ry
     Gradient error          =      0.0E+00 Ry/Bohr
     Cell gradient error     =      5.2E+01 kbar

     number of scf cycles    =   4
     number of bfgs steps    =   3

     enthalpy           old  =     -29.2687513189 Ry
     enthalpy           new  =     -29.2773972420 Ry

     CASE: enthalpy          _new < enthalpy          _old

     new trust radius        =       0.1359450095 bohr
     new conv_thr            =       0.0000000010 Ry

     new unit-cell volume =    213.67599 a.u.^3 (    31.66351 Ang^3 )
     density =      0.72802 g/cm^3

CELL_PARAMETERS (angstrom)
   3.163634998   0.000000000   0.000000000
   0.000000000   3.163634998   0.000000000
   0.000000000   0.000000000   3.163634998

ATOMIC_POSITIONS (crystal)
Li               0.0000000000        0.0000000000        0.0000000000
Li               0.5000000000        0.5000000000        0.5000000000



     Writing config-only to output data dir runs/exp/t9new_r1/qe_smoke//out/li.save/ :
     XML data file
     NEW-OLD atomic charge density approx. for the potential
     New effective cutoffs (rho, wfc):  491.53   59.65

     total cpu time spent up to now is       39.5 secs

     Self-consistent Calculation

     iteration #  1     ecut=    50.00 Ry     beta= 0.30
     Davidson diagonalization with overlap
     ethr =  1.00E-06,  avg # of iterations =  4.0

     total cpu time spent up to now is       41.0 secs

     total energy              =     -29.28515009 Ry
     estimated scf accuracy    <       0.00003319 Ry

     iteration #  2     ecut=    50.00 Ry     beta= 0.30
     Davidson diagonalization with overlap
     ethr =  5.53E-07,  avg # of iterations =  1.0

     total cpu time spent up to now is       41.9 secs

     total energy              =     -29.28514895 Ry
     estimated scf accuracy    <       0.00001528 Ry

     iteration #  3     ecut=    50.00 Ry     beta= 0.30
     Davidson diagonalization with overlap
     ethr =  2.55E-07,  avg # of iterations =  1.0

     total cpu time spent up to now is       42.8 secs

     total energy              =     -29.28514978 Ry
     estimated scf accuracy    <       0.00000007 Ry

     iteration #  4     ecut=    50.00 Ry     beta= 0.30
     Davidson diagonalization with overlap
     ethr =  1.21E-09,  avg # of iterations =  4.0

     total cpu time spent up to now is       44.3 secs

     total energy              =     -29.28514998 Ry
     estimated scf accuracy    <       0.00000005 Ry

     iteration #  5     ecut=    50.00 Ry     beta= 0.30
     Davidson diagonalization with overlap
     ethr =  7.52E-10,  avg # of iterations =  1.0

     total cpu time spent up to now is       45.8 secs

     total energy              =     -29.28514999 Ry
     estimated scf accuracy    <          9.9E-09 Ry

     iteration #  6     ecut=    50.00 Ry     beta= 0.30
     Davidson diagonalization with overlap
     ethr =  1.65E-10,  avg # of iterations =  1.0

     total cpu time spent up to now is       46.8 secs

     End of self-consistent calculation

          k = 0.0000 0.0000 0.0000 (  1743 PWs)   bands (ev):

   -44.2137 -44.1313  -2.0850   8.2742   8.2742   8.2742  10.7429

     the Fermi energy is     5.9142 ev

!    total energy              =     -29.28515000 Ry
     estimated scf accuracy    <          8.9E-11 Ry
     smearing contrib. (-TS)   =      -0.00000000 Ry
     internal energy E=F+TS    =     -29.28515000 Ry

     The total energy is F=E-TS. E is the sum of the following terms:
     one-electron contribution =     -18.45785840 Ry
     hartree contribution      =       7.00012580 Ry
     xc contribution           =      -6.87027812 Ry
     ewald contribution        =     -10.95713928 Ry

     convergence has been achieved in   6 iterations

     Forces acting on atoms (cartesian axes, Ry/au):

     atom    1 type  1   force =     0.00000000    0.00000000    0.00000000
     atom    2 type  1   force =     0.00000000    0.00000000    0.00000000

     Total force =     0.000000     Total SCF correction =     0.000000


     Computing stress (Cartesian axis) and pressure

          total   stress  (Ry/bohr**3)                   (kbar)     P=      -19.78
  -0.00013446   0.00000000   0.00000000          -19.78        0.00        0.00
   0.00000000  -0.00013446   0.00000000            0.00      -19.78        0.00
   0.00000000   0.00000000  -0.00013446            0.00        0.00      -19.78

     Energy error            =      7.8E-03 Ry
     Gradient error          =      0.0E+00 Ry/Bohr
     Cell gradient error     =      2.0E+01 kbar

     number of scf cycles    =   5
     number of bfgs steps    =   4

     enthalpy           old  =     -29.2773972420 Ry
     enthalpy           new  =     -29.2851500039 Ry

     CASE: enthalpy          _new < enthalpy          _old

     new trust radius        =       0.0720029512 bohr
     new conv_thr            =       0.0000000010 Ry

     new unit-cell volume =    198.27390 a.u.^3 (    29.38116 Ang^3 )
     density =      0.78457 g/cm^3

CELL_PARAMETERS (angstrom)
   3.085718609   0.000000000   0.000000000
   0.000000000   3.085718609   0.000000000
   0.000000000   0.000000000   3.085718609

ATOMIC_POSITIONS (crystal)
Li               0.0000000000        0.0000000000        0.0000000000
Li               0.5000000000        0.5000000000        0.5000000000



     Writing config-only to output data dir runs/exp/t9new_r1/qe_smoke//out/li.save/ :
     XML data file
     NEW-OLD atomic charge density approx. for the potential
     New effective cutoffs (rho, wfc):  516.67   62.70

     total cpu time spent up to now is       47.1 secs

     Self-consistent Calculation

     iteration #  1     ecut=    50.00 Ry     beta= 0.30
     Davidson diagonalization with overlap
     ethr =  1.00E-06,  avg # of iterations =  4.0

     total cpu time spent up to now is       48.6 secs

     total energy              =     -29.28591017 Ry
     estimated scf accuracy    <       0.00001335 Ry

     iteration #  2     ecut=    50.00 Ry     beta= 0.30
     Davidson diagonalization with overlap
     ethr =  2.22E-07,  avg # of iterations =  1.0

     total cpu time spent up to now is       49.6 secs

     total energy              =     -29.28590981 Ry
     estimated scf accuracy    <       0.00000616 Ry

     iteration #  3     ecut=    50.00 Ry     beta= 0.30
     Davidson diagonalization with overlap
     ethr =  1.03E-07,  avg # of iterations =  1.0

     total cpu time spent up to now is       50.7 secs

     total energy              =     -29.28591019 Ry
     estimated scf accuracy    <       0.00000003 Ry

     iteration #  4     ecut=    50.00 Ry     beta= 0.30
     Davidson diagonalization with overlap
     ethr =  4.86E-10,  avg # of iterations =  4.0

     total cpu time spent up to now is       52.6 secs

     total energy              =     -29.28591028 Ry
     estimated scf accuracy    <       0.00000001 Ry

     iteration #  5     ecut=    50.00 Ry     beta= 0.30
     Davidson diagonalization with overlap
     ethr =  2.49E-10,  avg # of iterations =  2.0

     total cpu time spent up to now is       54.0 secs

     total energy              =     -29.28591030 Ry
     estimated scf accuracy    <          5.3E-09 Ry

     iteration #  6     ecut=    50.00 Ry     beta= 0.30
     Davidson diagonalization with overlap
     ethr =  8.91E-11,  avg # of iterations =  1.0

     total cpu time spent up to now is       54.9 secs

     End of self-consistent calculation

          k = 0.0000 0.0000 0.0000 (  1743 PWs)   bands (ev):

   -43.7933 -43.6860  -1.8604   8.8976   8.8976   8.8976  11.4373

     the Fermi energy is     6.5743 ev

!    total energy              =     -29.28591031 Ry
     estimated scf accuracy    <          2.4E-11 Ry
     smearing contrib. (-TS)   =      -0.00000000 Ry
     internal energy E=F+TS    =     -29.28591031 Ry

     The total energy is F=E-TS. E is the sum of the following terms:
     one-electron contribution =     -18.04573212 Ry
     hartree contribution      =       6.89356428 Ry
     xc contribution           =      -6.89992833 Ry
     ewald contribution        =     -11.23381413 Ry

     convergence has been achieved in   6 iterations

     Forces acting on atoms (cartesian axes, Ry/au):

     atom    1 type  1   force =     0.00000000    0.00000000    0.00000000
     atom    2 type  1   force =     0.00000000    0.00000000    0.00000000

     Total force =     0.000000     Total SCF correction =     0.000000


     Computing stress (Cartesian axis) and pressure

          total   stress  (Ry/bohr**3)                   (kbar)     P=        6.79
   0.00004618   0.00000000   0.00000000            6.79        0.00        0.00
   0.00000000   0.00004618   0.00000000            0.00        6.79        0.00
   0.00000000   0.00000000   0.00004618            0.00        0.00        6.79

     Energy error            =      7.6E-04 Ry
     Gradient error          =      0.0E+00 Ry/Bohr
     Cell gradient error     =      6.8E+00 kbar

     number of scf cycles    =   6
     number of bfgs steps    =   5

     enthalpy           old  =     -29.2851500039 Ry
     enthalpy           new  =     -29.2859103112 Ry

     CASE: enthalpy          _new < enthalpy          _old

     new trust radius        =       0.0175137659 bohr
     new conv_thr            =       0.0000000010 Ry

     new unit-cell volume =    201.99612 a.u.^3 (    29.93274 Ang^3 )
     density =      0.77011 g/cm^3

CELL_PARAMETERS (angstrom)
   3.104908526   0.000000000   0.000000000
   0.000000000   3.104908526   0.000000000
   0.000000000   0.000000000   3.104908526

ATOMIC_POSITIONS (crystal)
Li               0.0000000000        0.0000000000        0.0000000000
Li               0.5000000000        0.5000000000        0.5000000000



     Writing config-only to output data dir runs/exp/t9new_r1/qe_smoke//out/li.save/ :
     XML data file
     NEW-OLD atomic charge density approx. for the potential
     New effective cutoffs (rho, wfc):  510.30   61.92

     total cpu time spent up to now is       55.2 secs

     Self-consistent Calculation

     iteration #  1     ecut=    50.00 Ry     beta= 0.30
     Davidson diagonalization with overlap
     ethr =  1.00E-06,  avg # of iterations =  3.0

     Threshold (ethr) on eigenvalues was too large:
     Diagonalizing with lowered threshold

     Davidson diagonalization with overlap
     ethr =  1.46E-08,  avg # of iterations =  2.0

     total cpu time spent up to now is       57.4 secs

     total energy              =     -29.28598807 Ry
     estimated scf accuracy    <       0.00000087 Ry

     iteration #  2     ecut=    50.00 Ry     beta= 0.30
     Davidson diagonalization with overlap
     ethr =  1.46E-08,  avg # of iterations =  1.0

     total cpu time spent up to now is       58.7 secs

     total energy              =     -29.28598809 Ry
     estimated scf accuracy    <       0.00000040 Ry

     iteration #  3     ecut=    50.00 Ry     beta= 0.30
     Davidson diagonalization with overlap
     ethr =  6.72E-09,  avg # of iterations =  1.0

     total cpu time spent up to now is       60.0 secs

     total energy              =     -29.28598814 Ry
     estimated scf accuracy    <          1.8E-09 Ry

     iteration #  4     ecut=    50.00 Ry     beta= 0.30
     Davidson diagonalization with overlap
     ethr =  3.08E-11,  avg # of iterations =  4.0

     total cpu time spent up to now is       61.4 secs

     End of self-consistent calculation

          k = 0.0000 0.0000 0.0000 (  1743 PWs)   bands (ev):

   -43.8993 -43.7987  -1.9190   8.7393   8.7393   8.7393  11.2611

     the Fermi energy is     6.4069 ev

!    total energy              =     -29.28598817 Ry
     estimated scf accuracy    <          7.6E-10 Ry
     smearing contrib. (-TS)   =      -0.00000000 Ry
     internal energy E=F+TS    =     -29.28598817 Ry

     The total energy is F=E-TS. E is the sum of the following terms:
     one-electron contribution =     -18.14929159 Ry
     hartree contribution      =       6.92011450 Ry
     xc contribution           =      -6.89242764 Ry
     ewald contribution        =     -11.16438344 Ry

     convergence has been achieved in   4 iterations

     Forces acting on atoms (cartesian axes, Ry/au):

     atom    1 type  1   force =     0.00000000    0.00000000    0.00000000
     atom    2 type  1   force =     0.00000000    0.00000000    0.00000000

     Total force =     0.000000     Total SCF correction =     0.000000


     Computing stress (Cartesian axis) and pressure

          total   stress  (Ry/bohr**3)                   (kbar)     P=       -0.42
  -0.00000287   0.00000000   0.00000000           -0.42        0.00        0.00
   0.00000000  -0.00000287   0.00000000            0.00       -0.42        0.00
   0.00000000   0.00000000  -0.00000287            0.00        0.00       -0.42

     Energy error            =      7.8E-05 Ry
     Gradient error          =      0.0E+00 Ry/Bohr
     Cell gradient error     =      4.2E-01 kbar

     bfgs converged in   7 scf cycles and   6 bfgs steps
     (criteria: energy <  1.0E-04 Ry, force <  1.0E-03 Ry/Bohr, cell <  5.0E-01 kbar)

     End of BFGS Geometry Optimization

     Final enthalpy           =     -29.2859881695 Ry

     File runs/exp/t9new_r1/qe_smoke//out/li.bfgs deleted, as requested
Begin final coordinates
     new unit-cell volume =    201.99612 a.u.^3 (    29.93274 Ang^3 )
     density =      0.77011 g/cm^3

CELL_PARAMETERS (angstrom)
   3.104908526   0.000000000   0.000000000
   0.000000000   3.104908526   0.000000000
   0.000000000   0.000000000   3.104908526

ATOMIC_POSITIONS (crystal)
Li               0.0000000000        0.0000000000        0.0000000000
Li               0.5000000000        0.5000000000        0.5000000000
End final coordinates



     Writing config-only to output data dir runs/exp/t9new_r1/qe_smoke//out/li.save/ :
     XML data file

     Final scf calculation at the relaxed structure.
     The G-vectors are recalculated for the final unit cell
     Results may differ from those at the preceding step.

     G-vector sticks info
     --------------------
     sticks:   dense  smooth     PW     G-vecs:    dense   smooth      PW
     Sum        1093     553    137                27201     9771    1213

     Using Slab Decomposition



     bravais-lattice index     =            0
     lattice parameter (alat)  =       6.6329  a.u.
     unit-cell volume          =     201.9961 (a.u.)^3
     number of atoms/cell      =            2
     number of atomic types    =            1
     number of electrons       =         6.00
     number of Kohn-Sham states=            7
     kinetic-energy cutoff     =      50.0000  Ry
     charge density cutoff     =     400.0000  Ry
     scf convergence threshold =      1.0E-09
     mixing beta               =       0.3000
     number of iterations used =            8  plain     mixing
     press convergence thresh. =      5.0E-01
     Exchange-correlation=  SLA  PW   PBX  PBC
                           (   1   4   3   4   0   0   0)

     celldm(1)=   6.632939  celldm(2)=   0.000000  celldm(3)=   0.000000
     celldm(4)=   0.000000  celldm(5)=   0.000000  celldm(6)=   0.000000

     crystal axes: (cart. coord. in units of alat)
               a(1) = (   0.884589   0.000000   0.000000 )  
               a(2) = (   0.000000   0.884589   0.000000 )  
               a(3) = (   0.000000   0.000000   0.884589 )  

     reciprocal axes: (cart. coord. in units 2 pi/alat)
               b(1) = (  1.130468  0.000000  0.000000 )  
               b(2) = (  0.000000  1.130468  0.000000 )  
               b(3) = (  0.000000  0.000000  1.130468 )  


     PseudoPot. # 1 for Li read from file:
     D://anaconda//envs//py312//share//sssp//efficiency/li_pbe_v1.4.uspp.F.UPF
     MD5 check sum: e912e257baa3777c20ea3d68f190483c
     Pseudo is Ultrasoft, Zval =  3.0
     Generated by new atomic code, or converted to UPF format
     Using radial grid of  751 points,  5 beta functions with: 
                l(1) =   0
                l(2) =   0
                l(3) =   0
                l(4) =   1
                l(5) =   1
     Q(r) pseudized with 10 coefficients,  rinner =    1.150   1.150   1.150


     atomic species   valence    mass     pseudopotential
     Li                3.00     6.94100     Li( 1.00)

     48 Sym. Ops., with inversion, found



   Cartesian axes

     site n.     atom                  positions (alat units)
         1        Li     tau(   1) = (   0.0000000   0.0000000   0.0000000  )
         2        Li     tau(   2) = (   0.4422947   0.4422947   0.4422947  )

     number of k points=     1  Gaussian smearing, width (Ry)=  0.0200
                       cart. coord. in units 2pi/alat
        k(    1) = (   0.0000000   0.0000000   0.0000000), wk =   2.0000000

     Dense  grid:    27201 G-vectors     FFT dimensions: (  40,  40,  40)

     Smooth grid:     9771 G-vectors     FFT dimensions: (  27,  27,  27)

     Estimated max dynamical RAM per process >      42.20 MB

     Initial potential from superposition of free atoms

     starting charge       5.0985, renormalised to       6.0000
     Starting wfcs are   10 randomized atomic wfcs

     total cpu time spent up to now is       67.3 secs

     Self-consistent Calculation

     iteration #  1     ecut=    50.00 Ry     beta= 0.30
     Davidson diagonalization with overlap
     ethr =  1.00E-06,  avg # of iterations = 15.0

     total cpu time spent up to now is       70.1 secs

     total energy              =     -29.37065809 Ry
     estimated scf accuracy    <       0.29675987 Ry

     iteration #  2     ecut=    50.00 Ry     beta= 0.30
     Davidson diagonalization with overlap
     ethr =  4.95E-03,  avg # of iterations =  1.0

     total cpu time spent up to now is       70.8 secs

     total energy              =     -29.27152396 Ry
     estimated scf accuracy    <       0.13260513 Ry

     iteration #  3     ecut=    50.00 Ry     beta= 0.30
     Davidson diagonalization with overlap
     ethr =  2.21E-03,  avg # of iterations =  2.0

     total cpu time spent up to now is       71.5 secs

     total energy              =     -29.28374901 Ry
     estimated scf accuracy    <       0.00026206 Ry

     iteration #  4     ecut=    50.00 Ry     beta= 0.30
     Davidson diagonalization with overlap
     ethr =  4.37E-06,  avg # of iterations =  6.0

     total cpu time spent up to now is       72.9 secs

     total energy              =     -29.28610762 Ry
     estimated scf accuracy    <       0.00026886 Ry

     iteration #  5     ecut=    50.00 Ry     beta= 0.30
     Davidson diagonalization with overlap
     ethr =  4.37E-06,  avg # of iterations =  1.0

     total cpu time spent up to now is       73.6 secs

     total energy              =     -29.28595379 Ry
     estimated scf accuracy    <       0.00029214 Ry

     iteration #  6     ecut=    50.00 Ry     beta= 0.30
     Davidson diagonalization with overlap
     ethr =  4.37E-06,  avg # of iterations =  2.0

     total cpu time spent up to now is       74.3 secs

     total energy              =     -29.28597643 Ry
     estimated scf accuracy    <       0.00000557 Ry

     iteration #  7     ecut=    50.00 Ry     beta= 0.30
     Davidson diagonalization with overlap
     ethr =  9.28E-08,  avg # of iterations =  3.0

     total cpu time spent up to now is       75.1 secs

     total energy              =     -29.28597782 Ry
     estimated scf accuracy    <       0.00000529 Ry

     iteration #  8     ecut=    50.00 Ry     beta= 0.30
     Davidson diagonalization with overlap
     ethr =  8.82E-08,  avg # of iterations =  1.0

     total cpu time spent up to now is       75.8 secs

     total energy              =     -29.28597555 Ry
     estimated scf accuracy    <       0.00000421 Ry

     iteration #  9     ecut=    50.00 Ry     beta= 0.30
     Davidson diagonalization with overlap
     ethr =  7.01E-08,  avg # of iterations =  1.0

     total cpu time spent up to now is       76.5 secs

     total energy              =     -29.28597560 Ry
     estimated scf accuracy    <       0.00000050 Ry

     iteration # 10     ecut=    50.00 Ry     beta= 0.30
     Davidson diagonalization with overlap
     ethr =  8.29E-09,  avg # of iterations =  2.0

     total cpu time spent up to now is       77.2 secs

     total energy              =     -29.28597554 Ry
     estimated scf accuracy    <       0.00000041 Ry

     iteration # 11     ecut=    50.00 Ry     beta= 0.30
     Davidson diagonalization with overlap
     ethr =  6.82E-09,  avg # of iterations =  1.0

     total cpu time spent up to now is       77.9 secs

     total energy              =     -29.28597558 Ry
     estimated scf accuracy    <       0.00000016 Ry

     iteration # 12     ecut=    50.00 Ry     beta= 0.30
     Davidson diagonalization with overlap
     ethr =  2.68E-09,  avg # of iterations =  1.0

     total cpu time spent up to now is       78.7 secs

     total energy              =     -29.28597553 Ry
     estimated scf accuracy    <       0.00000024 Ry

     iteration # 13     ecut=    50.00 Ry     beta= 0.30
     Davidson diagonalization with overlap
     ethr =  2.68E-09,  avg # of iterations =  1.0

     total cpu time spent up to now is       80.1 secs

     total energy              =     -29.28597551 Ry
     estimated scf accuracy    <       0.00000011 Ry

     iteration # 14     ecut=    50.00 Ry     beta= 0.30
     Davidson diagonalization with overlap
     ethr =  1.90E-09,  avg # of iterations =  1.0

     total cpu time spent up to now is       80.9 secs

     End of self-consistent calculation

          k = 0.0000 0.0000 0.0000 (  1213 PWs)   bands (ev):

   -43.8987 -43.7981  -1.9189   8.7394   8.7394   8.7394  11.2612

     the Fermi energy is     6.4070 ev

!    total energy              =     -29.28597551 Ry
     estimated scf accuracy    <          6.6E-10 Ry
     smearing contrib. (-TS)   =      -0.00000000 Ry
     internal energy E=F+TS    =     -29.28597551 Ry

     The total energy is F=E-TS. E is the sum of the following terms:
     one-electron contribution =     -18.14928810 Ry
     hartree contribution      =       6.92012589 Ry
     xc contribution           =      -6.89242987 Ry
     ewald contribution        =     -11.16438344 Ry

     convergence has been achieved in  14 iterations

     Forces acting on atoms (cartesian axes, Ry/au):

     atom    1 type  1   force =     0.00000000    0.00000000    0.00000000
     atom    2 type  1   force =     0.00000000    0.00000000    0.00000000

     Total force =     0.000000     Total SCF correction =     0.000000


     Computing stress (Cartesian axis) and pressure

          total   stress  (Ry/bohr**3)                   (kbar)     P=       -0.53
  -0.00000364   0.00000000   0.00000000           -0.53        0.00        0.00
   0.00000000  -0.00000364   0.00000000            0.00       -0.53        0.00
   0.00000000   0.00000000  -0.00000364            0.00        0.00       -0.53


     Writing all to output data dir runs/exp/t9new_r1/qe_smoke//out/li.save/ :
     XML data file, charge density, pseudopotentials, collected wavefunctions

     init_run     :      5.27s CPU     13.20s WALL (       2 calls)
     electrons    :     51.38s CPU     65.49s WALL (       8 calls)
     update_pot   :      0.14s CPU      0.15s WALL (       6 calls)
     forces       :      0.33s CPU      0.27s WALL (       8 calls)
     stress       :      1.53s CPU      1.52s WALL (       8 calls)

     Called by init_run:
     wfcinit      :      1.73s CPU      5.25s WALL (       2 calls)
     potinit      :      1.33s CPU      3.31s WALL (       2 calls)
     hinit0       :      2.19s CPU      4.56s WALL (       2 calls)

     Called by electrons:
     c_bands      :     32.73s CPU     50.41s WALL (      56 calls)
     sum_band     :     16.03s CPU     12.64s WALL (      56 calls)
     v_of_rho     :      1.11s CPU      1.01s WALL (      61 calls)
     newd         :      1.19s CPU      1.34s WALL (      61 calls)
     mix_rho      :      0.23s CPU      0.21s WALL (      56 calls)

     Called by c_bands:
     init_us_2    :      0.03s CPU      0.04s WALL (     122 calls)
     cegterg      :     32.70s CPU     50.34s WALL (      56 calls)

     Called by *egterg:
     cdiaghg      :      0.00s CPU      0.03s WALL (     174 calls)
     h_psi        :     34.19s CPU     55.35s WALL (     185 calls)
     s_psi        :      0.02s CPU      0.04s WALL (     185 calls)
     g_psi        :      0.00s CPU      0.01s WALL (     127 calls)

     Called by h_psi:
     h_psi:calbec :      0.00s CPU      0.03s WALL (     185 calls)
     vloc_psi     :     33.94s CPU     55.24s WALL (     185 calls)
                                        0.00s GPU  (     185 calls)
     add_vuspsi   :      0.19s CPU      0.03s WALL (     185 calls)

     General routines
     calbec       :      0.00s CPU      0.05s WALL (     377 calls)
     fft          :      3.39s CPU      4.90s WALL (     850 calls)
     ffts         :      1.55s CPU      3.31s WALL (     117 calls)
     fftw         :     38.50s CPU     64.74s WALL (    2452 calls)
     interpolate  :      1.59s CPU      3.36s WALL (      61 calls)


     PWSCF        :     58.94s CPU   1m21.10s WALL


   This run was terminated on:  21:48:27   9Sep2026            

=------------------------------------------------------------------------------=
   JOB DONE.
=------------------------------------------------------------------------------=
